c --- [ banner ] -------------------------------------------------------------
c 
c CaDiCaL Radically Simplified CDCL SAT Solver
c Copyright (c) 2016-2021 A. Biere, M. Fleury, N. Froleyks
c 
c Version 1.5.2 a5f15211db36c3956764e18194dd5bd63bf3b5e6
c g++ (GCC) 9.3.0 -Wall -Wextra -O3 -DNDEBUG
c Fri Oct 21 01:27:37 EDT 2022 Linux gra-login3 3.10.0-1160.66.1.el7.x86_64 x86_64
c 
c --- [ limit ] --------------------------------------------------------------
c 
c setting conflict limit to 200000 conflicts (due to '200000')
c 
c --- [ parsing input ] ------------------------------------------------------
c 
c reading DIMACS file from '23.cubes431.adj'
c opening file to read '23.cubes431.adj'
c found 'p cnf 5320 914900' header
c parsed 914900 clauses in 8.23 seconds process time
c closing file '23.cubes431.adj'
c after reading 637830044 bytes 608.3 MB
c 
c --- [ options ] ------------------------------------------------------------
c 
c all options are set to their default value
c 
c --- [ solving ] ------------------------------------------------------------
c 
c time measured in process time since initialization
c 
c  seconds   reductions  redundant  irredundant
c          MB    restarts       trail      variables
c           level   conflicts       glue        remaining
c 
c *  8.23 631  0 0   0    0    0  0% 0 914847 2038 38%
c {  8.49 650  0 0   0    0    0  0% 0 914847 2038 38%
c i  8.96 674 1013 0   1   14   13 34% 4 914847 2031 38%
c i 10.25 705 363 0   9   62   54 29% 21 914847 2029 38%
c i 10.38 707 325 0  11   70   60 29% 22 914847 2028 38%
c i 10.53 708 301 0  13   77   64 28% 21 914847 2027 38%
c i 10.70 711 274 0  15   87   72 28% 22 914847 2016 38%
c i 11.32 716 151 0  18  165  118 24% 16 914847 2013 38%
c i 11.41 716 151 0  18  166  118 24% 16 914847 2012 38%
c i 11.52 717 142 0  18  178  127 24% 16 914847 2011 38%
c i 11.53 717 141 0  18  180  128 24% 16 914847 2010 38%
c i 11.69 718 134 0  18  194  141 24% 17 914847 2009 38%
c i 11.98 719 113 0  19  247  175 23% 17 914847 2008 38%
c - 14.64 658 102 1  27  301  220 23% 17 251654 2008 38%
c i 14.78 642 92 1  27  336  231 23% 16 251654 2007 38%
c i 14.80 642 92 1  27  339  233 23% 16 251654 2006 38%
c i 14.89 642 90 1  28  353  246 23% 17 251654 2005 38%
c i 14.93 642 89 1  30  363  254 23% 18 251654 2004 38%
c i 14.95 642 88 1  31  365  255 23% 18 251654 2003 38%
c i 15.04 642 86 1  35  385  272 23% 18 251654 2002 38%
c 
c  seconds   reductions  redundant   irredundant
c          MB    restarts       trail       variables
c           level   conflicts       glue         remaining
c 
c i 15.35 642 84 1  44  427  308 23% 18 251654 2001 38%
c i 15.66 642 78 1  53  484  354 24% 19 251654 2000 38%
c i 15.69 643 77 1  53  490  359 24% 18 251654 1999 38%
c i 16.19 643 77 1  61  549  415 24% 20 251654 1998 38%
c i 16.42 643 75 1  73  596  438 24% 20 251654 1997 38%
c i 17.18 644 72 1  80  692  501 24% 19 251654 1996 38%
c i 17.26 644 71 1  80  699  507 24% 19 251654 1995 38%
c i 17.32 644 71 1  80  708  514 24% 19 251654 1994 37%
c i 17.38 644 70 1  80  727  527 24% 20 251654 1993 37%
c i 17.48 644 70 1  83  737  536 24% 20 251654 1992 37%
c i 17.57 644 70 1  84  744  542 24% 20 251654 1991 37%
c i 18.20 645 73 1  96  793  584 24% 22 251654 1990 37%
c i 18.48 645 76 1 103  820  609 24% 23 251654 1989 37%
c i 18.53 645 77 1 106  828  615 24% 24 251654 1988 37%
c i 18.70 645 78 1 109  844  628 24% 24 251654 1987 37%
c i 18.72 645 79 1 110  848  629 24% 24 251654 1985 37%
c i 18.76 645 79 1 111  859  635 24% 24 251654 1982 37%
c i 19.15 645 78 1 119  904  677 24% 23 251654 1981 37%
c i 19.19 645 78 1 119  913  684 24% 23 251654 1980 37%
c i 19.25 645 77 1 119  937  707 25% 23 251654 1979 37%
c 
c  seconds   reductions  redundant   irredundant
c          MB    restarts       trail       variables
c           level   conflicts       glue         remaining
c 
c i 19.26 645 77 1 119  943  711 25% 23 251654 1978 37%
c i 19.26 645 77 1 119  944  711 25% 23 251654 1977 37%
c i 19.26 645 77 1 119  945  711 25% 23 251654 1976 37%
c i 19.26 645 76 1 119  946  711 25% 23 251654 1975 37%
c i 19.30 645 76 1 119  960  723 25% 23 251654 1974 37%
c i 19.32 645 75 1 119  976  738 25% 23 251654 1973 37%
c i 19.44 646 75 1 119  997  753 25% 23 251654 1972 37%
c } 19.45 646 75 1 119 1000  756 25% 23 251654 1972 37%
c [ 19.45 646  0 1 119 1000  756  0% 0 251654 1972 37%
c O 19.45 646 48 1 119 1002  758 20% 6 251654 1972 37%
c i 19.68 646 19 1 119 1026  779 25% 12 251654 1971 37%
c i 19.69 646 19 1 119 1027  779 25% 12 251654 1970 37%
c i 19.73 646 24 1 119 1036  787 27% 17 251654 1969 37%
c i 19.74 646 23 1 119 1038  788 27% 16 251654 1968 37%
c i 19.83 646 26 1 119 1051  798 27% 18 251654 1967 37%
c i 19.85 646 27 1 119 1058  802 28% 19 251654 1966 37%
c i 20.01 646 31 1 119 1132  860 28% 24 251654 1965 37%
c - 20.46 742 31 2 119 1142  767 28% 25 251525 1965 37%
c i 20.78 742 31 2 119 1271  851 28% 25 251525 1964 37%
c i 20.82 742 31 2 119 1302  869 28% 26 251525 1963 37%
c 
c  seconds   reductions  redundant   irredundant
c          MB    restarts       trail       variables
c           level   conflicts       glue         remaining
c 
c i 20.85 742 31 2 119 1356  905 29% 26 251525 1962 37%
c i 21.38 742 31 2 119 1810 1205 28% 26 251525 1961 37%
c i 21.72 742 31 2 119 1991 1323 28% 26 251525 1960 37%
c i 21.73 742 31 2 119 2001 1330 28% 26 251525 1959 37%
c i 21.95 742 31 2 120 2254 1457 28% 27 251525 1958 37%
c - 22.30 741 32 3 120 2402 1187 28% 27 251504 1958 37%
c ] 23.07 720 32 3 120 3000 1547 50% 28 251504 1958 37%
c { 23.07 720 75 3 120 3000 1547 67% 23 251504 1958 37%
c F 23.08 720 75 3 120 3004 1551 67% 23 251504 1958 37%
c i 23.10 720 75 3 120 3005 1551 67% 23 251504 1957 37%
c i 23.36 720 72 3 120 3048 1584 66% 22 251504 1956 37%
c - 24.33 720 45 4 120 4082 1629 56% 17 251498 1956 37%
c i 24.47 720 44 4 120 4138 1660 56% 17 251498 1955 37%
c i 24.54 720 43 4 120 4210 1688 56% 16 251498 1954 37%
c i 25.83 720 44 4 156 4455 1871 55% 17 251498 1953 37%
c i 26.50 720 42 4 183 4650 1977 53% 17 251498 1952 37%
c i 27.44 720 41 4 218 4959 2115 51% 17 251498 1951 37%
c 3 28.15 720 42 4 231 5003 2863 51% 17 251465 1942 37%
c p 34.58 720 42 4 231 5003 5210 51% 17 251465 1908 36%
c d 34.96 720 42 4 231 5003 5175 51% 17 251102 1904 36%
c 
c  seconds   reductions  redundant   irredundant
c          MB    restarts       trail       variables
c           level   conflicts       glue         remaining
c 
c # 38.02 720 40 4 327 6005 5864 50% 18 251102 1904 36%
c - 38.71 715 39 5 333 6182 2393 50% 18 251102 1904 36%
c } 40.54 715 38 5 445 7000 3039 50% 19 251102 1904 36%
c [ 40.54 715 32 5 445 7000 3039 50% 28 251102 1904 36%
c - 41.86 716 28 6 446 8702 3070 50% 24 251102 1904 36%
c I 43.52 716 26 6 447 10007 3902 50% 22 251102 1904 36%
c - 46.12 716 26 7 449 11641 3404 50% 22 251102 1904 36%
c ] 49.31 716 27 7 450 15000 5697 50% 23 251102 1904 36%
c { 49.31 716 38 7 450 15000 5697 50% 19 251102 1904 36%
c - 49.44 716 38 8 450 15000 3983 50% 19 251102 1904 36%
c 2 49.50 716 38 8 450 15003 4941 50% 19 251101 1904 36%
c p 51.88 716 38 8 450 15003 7211 50% 19 251101 1891 36%
c B 52.04 716 38 8 450 15008 7216 50% 19 251101 1891 36%
c s 54.16 716 32 8 484 17621 8800 51% 18 249782 1891 36%
c v 58.09 716 32 8 484 17621 8800 51% 18 249691 1891 36%
c w 58.19 716 32 8 484 17621 8796 51% 18 249691 1891 36%
c t 58.20 716 32 8 484 17621 8794 51% 18 249676 1891 36%
c e 59.01 717 32 8 484 17621 6958 51% 18 247212 862 16%
c s 59.09 717 32 8 484 17621 6958 51% 18 246831 862 16%
c } 60.29 715 32 8 484 17621 6882  0% 18 246831 862 16%
c 
c  seconds   reductions   redundant   irredundant
c          MB    restarts        trail       variables
c           level    conflicts       glue        remaining
c 
c 1 60.29 715 32 8 484 17621 6882  0% 18 246831 862 16%
c 
c --- [ writing output ] -----------------------------------------------------
c 
c writing simplified CNF to DIMACS file 'simp/23.cubes431.adj.simp1'
c * 60.29 715 32 8 484 17621 6882  0% 18 246831 862 16%
c opening file to write 'simp/23.cubes431.adj.simp1'
c writing 'p cnf 5320 246831' header
c closing file 'simp/23.cubes431.adj.simp1'
c after writing 95557101 bytes 91.1 MB
c wrote 246831 clauses in 0.69 seconds process time
c 
c --- [ writing extension ] --------------------------------------------------
c 
c writing extension stack to 'simp/23.cubes431.adj.ext1'
c opening file to write 'simp/23.cubes431.adj.ext1'
c closing file 'simp/23.cubes431.adj.ext1'
c after writing 70265 bytes 0.1 MB
c wrote 3109 witnesses in 0.00 seconds process time
c 
c --- [ result ] -------------------------------------------------------------
c 
s SATISFIABLE
c 
c --- [ run-time profiling ] -------------------------------------------------
c 
c process time taken by individual solving procedures
c (percentage relative to process time for solving)
c 
c        36.65   70.41% search
c        24.00   46.10% unstable
c        15.40   29.59% simplify
c        12.40   23.81% stable
c         8.75   16.82% probe
c         8.23   15.82% parse
c         4.01    7.70% vivify
c         1.58    3.03% elim
c         0.26    0.49% lucky
c         0.15    0.29% subsume
c         0.08    0.14% ternary
c   =================================
c        52.05   85.36% solve
c 
c last line shows process time for solving
c (percentage relative to total process time)
c 
c --- [ statistics ] ---------------------------------------------------------
c 
c chronological:              3533        20.05 %  of conflicts
c conflicts:                 17621       338.53    per second
c decisions:                 53571      1029.20    per second
c eliminated:                 1029        19.34 %  of all variables
c fixed:                       579        10.88 %  of all variables
c learned:                   17195        97.58 %  per conflict
c learned_lits:            2941239       100.00 %  learned literals
c minimized:                     0         0.00 %  learned literals
c shrunken:                1915145        65.11 %  learned literals
c minishrunken:             209469         7.12 %  learned literals
c propagations:            2543637         0.05 M  per second
c reduced:                    6192        35.14 %  per conflict
c rephased:                      5      3524.20    interval
c restarts:                    484        36.41    interval
c stabilizing:                   2        56.75 %  of conflicts
c substituted:                  13         0.24 %  of all variables
c subsumed:                   7144         0.37 %  of all clauses
c strengthened:               1072         0.06 %  of all clauses
c ternary:                    1839         0.63 %  of resolved
c vivified:                     40         0.00 %  of all clauses
c weakened:                   2530         3.01    average size
c 
c seconds are measured in process time for solving
c 
c --- [ resources ] ----------------------------------------------------------
c 
c total process time since initialization:        60.98    seconds
c total real time since initialization:           61.01    seconds
c maximum resident set size of process:          837.58    MB
c 
c --- [ shutting down ] ------------------------------------------------------
c 
c exit 10
WARNING! DIMACS header mismatch: wrong number of variables.
============================[ Problem Statistics ]=============================
|                                                                             |
|  Number of variables:          2942                                         |
|  Number of clauses:          246831                                         |
|  Parse time:                   1.30 s                                       |
|  Simplification time:          0.05 s                                       |
|                                                                             |
============================[ Search Statistics ]====================================================
| Conflicts |          ORIGINAL         |          LEARNT          | Num Sols |      SUBGRAPHS      |
|           |    Vars  Clauses Literals |    Limit  Clauses Lit/Cl |          | Canonical Noncanon. |
=====================================================================================================
|       100 |    2865   246831 21860915 |     2000      100    131 |        0 |        14         0 |
|       251 |    2865   246832 21860977 |     2000      251     79 |        0 |        34         1 |
|      1478 |    2865   247834 21876612 |     2000     1478     30 |        0 |       186      1003 |
|      2658 |    2865   248677 21893011 |     3602     1660     15 |        0 |       408      1846 |
|      5807 |    2865   251320 21945180 |     5004     3011     15 |        0 |       866      4489 |
|      7668 |    2865   252422 21964768 |     5004     4872     19 |        0 |      1406      5591 |
|      9139 |    2865   252754 21971077 |     6309     3848     38 |        0 |      1493      5923 |
|     12971 |    2865   254878 22008424 |     7566     4537     25 |        0 |      2128      8047 |
|     15911 |    2865   255256 22017274 |     7566     7477     53 |        0 |      2191      8425 |
|     24841 |    2865   260342 22105890 |    10000     8241     32 |        0 |      2829     13511 |
|     31208 |    2865   260943 22118879 |    11208     9616     48 |        0 |      3077     14112 |
|     39960 |    2865   261046 22121293 |    13611     6571     22 |        0 |      3094     14215 |
|     56978 |    2865   265090 22184808 |    16011     9389     31 |        0 |      3865     18259 |
|     83793 |    2865   272444 22310724 |    19604    10397     25 |        0 |      4838     25613 |
|    128987 |    2865   288446 22564525 |    24406    12793     22 |        0 |      6760     41615 |
|    181949 |    2865   297619 22702015 |    28009    27358     54 |        0 |      7885     50788 |
|    309885 |    2865   359871 23715918 |    37616    26501     26 |        0 |     13183    113040 |
|    470459 |    2865   421919 24607042 |    46028    42887     54 |        0 |     17634    175088 |
|    688827 |    2865   492498 25512405 |    56817    32644     29 |        0 |     21140    245667 |
=====================================================================================================
Number of solutions   : 0
Canonical subgraphs   : 22498          (45 /sec)
          order  3    : 1              (125000 /sec)
          order  4    : 1              (333333 /sec)
          order  5    : 1              (142857 /sec)
          order  6    : 1              (34483 /sec)
          order  7    : 2              (7692 /sec)
          order  8    : 6              (2422 /sec)
          order  9    : 22             (822 /sec)
          order 10    : 69             (209 /sec)
          order 11    : 289            (61 /sec)
          order 12    : 1663           (46 /sec)
          order 13    : 12356          (41 /sec)
          order 14    : 4535           (61 /sec)
          order 15    : 2357           (46 /sec)
          order 16    : 881            (34 /sec)
          order 17    : 267            (22 /sec)
          order 18    : 42             (24 /sec)
          order 19    : 5              (26 /sec)
          order 20    : 0              (-nan /sec)
          order 21    : 0              (-nan /sec)
Noncanonical subgraphs: 270913         (325 /sec)
          order  3    : 0              (-nan /sec)
          order  4    : 0              (-nan /sec)
          order  5    : 0              (-nan /sec)
          order  6    : 0              (-nan /sec)
          order  7    : 0              (-nan /sec)
          order  8    : 0              (-nan /sec)
          order  9    : 0              (-nan /sec)
          order 10    : 0              (-nan /sec)
          order 11    : 0              (-nan /sec)
          order 12    : 0              (-nan /sec)
          order 13    : 25837          (2352 /sec)
          order 14    : 228597         (293 /sec)
          order 15    : 13653          (481 /sec)
          order 16    : 1760           (276 /sec)
          order 17    : 1066           (145 /sec)
          order 18    : 0              (-nan /sec)
          order 19    : 0              (-nan /sec)
          order 20    : 0              (-nan /sec)
Canonicity checking   : 505.194 s
Noncanonicity checking: 833.903 s
Total canonicity time : 1339.1 s
database reductions   : 46
restarts              : 1534
conflicts             : 741681         (430 /sec)
decisions             : 1185704        (0.00 % random) (688 /sec)
propagations          : 33186868       (19246 /sec)
conflict literals     : 55342448       (53.22 % deleted)
actual reward         : 0.225891
Memory used           : 384.00 MB
CPU time              : 1724.35 s

UNSATISFIABLE
